
n_res = 6;
rcap = [41, 43, 37, 44, 863, 746];
rtype = [1, 1, 1, 1, 2, 2];
n_tasks = 50;
modes =  [{1, 2, 3}, {4, 5, 6}, {7, 8, 9}, {10, 11, 12}, {13, 14, 15}, {16, 17, 18}, {19, 20, 21}, {22, 23, 24}, {25, 26, 27}, {28, 29, 30}, {31, 32, 33}, {34, 35, 36}, {37, 38, 39}, {40, 41, 42}, {43, 44, 45}, {46, 47, 48}, {49, 50, 51}, {52, 53, 54}, {55, 56, 57}, {58, 59, 60}, {61, 62, 63}, {64, 65, 66}, {67, 68, 69}, {70, 71, 72}, {73, 74, 75}, {76, 77, 78}, {79, 80, 81}, {82, 83, 84}, {85, 86, 87}, {88, 89, 90}, {91, 92, 93}, {94, 95, 96}, {97, 98, 99}, {100, 101, 102}, {103, 104, 105}, {106, 107, 108}, {109, 110, 111}, {112, 113, 114}, {115, 116, 117}, {118, 119, 120}, {121, 122, 123}, {124, 125, 126}, {127, 128, 129}, {130, 131, 132}, {133, 134, 135}, {136, 137, 138}, {139, 140, 141}, {142, 143, 144}, {145, 146, 147}, {148, 149, 150}];
succ =  [{49, 48, 42, 40, 28, 27, 26, 25, 22, 15, 13}, {48, 46, 41, 32, 31, 23, 17, 9}, {48, 45, 33, 32, 18, 15}, {49, 48, 45, 44, 43, 42, 41, 39, 27, 26, 21}, {48, 44, 43, 42, 36, 32, 30, 25, 18}, {50, 49, 46, 45, 44, 27, 20, 19}, {47, 44, 41, 37, 30, 27, 25, 19}, {49, 44, 38, 29, 17}, {50, 47, 44, 37, 30, 27, 20}, {49, 44, 41, 37, 29, 23, 19}, {47, 45, 43, 41, 40, 31, 29, 27, 26, 24}, {48, 41, 40, 39, 37, 33, 31, 28, 26}, {46, 45, 43, 39, 38, 37, 36, 30, 29}, {45, 41, 38, 37, 29, 26, 23}, {47, 44, 43, 41, 39, 38, 37, 36, 30}, {41, 40, 39, 38, 37, 29, 23}, {45, 43, 42, 40, 39, 37, 26}, {46, 41, 40, 38, 37, 35}, {40, 39, 36, 35, 31}, {42, 39, 38, 36, 29}, {40, 38, 37, 30}, {45, 38, 35, 31}, {42, 35, 34}, {36, 35, 34}, {34, 29}, {36, 34}, {35, 34}, {43, 34}, {35}, {34}, {34}, {35}, {35}, {}, {}, {}, {}, {}, {}, {}, {}, {}, {}, {}, {}, {}, {}, {}, {}, {}];
n_opt = 150;
dur = [15, 24, 27, 6, 13, 16, 1, 21, 22, 5, 6, 16, 10, 20, 25, 2, 3, 25, 10, 13, 29, 4, 5, 18, 4, 8, 22, 18, 19, 20, 15, 24, 25, 14, 16, 27, 6, 19, 24, 2, 6, 21, 3, 11, 22, 3, 16, 28, 7, 25, 26, 4, 9, 21, 4, 18, 23, 7, 10, 21, 6, 17, 28, 9, 28, 29, 6, 26, 30, 16, 21, 27, 12, 22, 29, 5, 9, 12, 3, 10, 16, 4, 5, 13, 6, 15, 16, 6, 26, 28, 7, 8, 9, 18, 27, 30, 7, 25, 27, 7, 19, 29, 8, 27, 29, 13, 20, 26, 9, 17, 30, 24, 25, 29, 5, 14, 29, 6, 11, 13, 7, 16, 21, 15, 20, 22, 10, 18, 30, 3, 26, 28, 15, 20, 28, 8, 10, 20, 1, 6, 16, 15, 22, 26, 1, 3, 5, 13, 14, 29];
rreq = [|2, 1, 1, 3, 2, 2, 4, 3, 3, 4, 3, 3, 2, 2, 2, 2, 1, 1, 1, 1, 1, 5, 5, 5, 3, 3, 1, 3, 1, 1, 4, 4, 2, 4, 4, 3, 5, 4, 4, 3, 3, 1, 4, 3, 3, 4, 4, 3, 4, 3, 1, 4, 2, 2, 5, 5, 5, 5, 5, 5, 2, 1, 1, 2, 2, 2, 2, 2, 2, 2, 1, 1, 5, 4, 2, 2, 2, 2, 4, 4, 4, 4, 4, 4, 4, 4, 4, 2, 1, 1, 4, 2, 1, 1, 1, 1, 5, 3, 2, 1, 1, 1, 1, 1, 1, 3, 2, 1, 5, 3, 2, 4, 4, 4, 4, 3, 2, 2, 1, 1, 3, 2, 1, 5, 4, 2, 1, 1, 1, 4, 4, 4, 5, 4, 4, 4, 4, 4, 3, 2, 2, 4, 4, 4, 2, 2, 2, 4, 4, 4
 |4, 4, 4, 2, 2, 2, 5, 4, 4, 3, 2, 1, 3, 3, 2, 4, 3, 2, 2, 1, 1, 4, 4, 4, 4, 3, 3, 4, 4, 4, 4, 4, 4, 4, 4, 4, 4, 3, 3, 3, 2, 2, 5, 4, 4, 5, 4, 4, 4, 3, 3, 2, 2, 2, 5, 4, 2, 4, 4, 4, 5, 5, 5, 3, 2, 2, 4, 3, 3, 2, 1, 1, 4, 3, 2, 1, 1, 1, 3, 2, 2, 4, 4, 4, 1, 1, 1, 1, 1, 1, 3, 1, 1, 5, 4, 2, 5, 2, 2, 3, 2, 2, 3, 3, 3, 3, 3, 2, 5, 4, 4, 3, 3, 2, 3, 3, 2, 3, 2, 2, 4, 4, 4, 3, 2, 2, 2, 1, 1, 3, 3, 2, 4, 3, 1, 2, 2, 1, 3, 3, 2, 2, 2, 2, 3, 3, 3, 4, 2, 2
 |1, 1, 1, 5, 4, 2, 1, 1, 1, 4, 3, 3, 4, 3, 3, 5, 4, 4, 3, 2, 2, 3, 1, 1, 2, 1, 1, 4, 4, 3, 3, 2, 2, 4, 3, 2, 5, 4, 3, 4, 3, 3, 4, 2, 2, 4, 3, 3, 4, 3, 2, 5, 4, 2, 2, 1, 1, 4, 3, 3, 4, 4, 4, 3, 3, 2, 2, 1, 1, 4, 4, 4, 4, 3, 2, 1, 1, 1, 3, 3, 3, 2, 2, 2, 2, 2, 2, 2, 1, 1, 2, 1, 1, 1, 1, 1, 5, 4, 3, 5, 3, 2, 5, 4, 3, 1, 1, 1, 5, 2, 2, 3, 3, 3, 5, 3, 2, 4, 4, 4, 4, 3, 3, 2, 1, 1, 3, 2, 2, 2, 2, 1, 3, 3, 3, 1, 1, 1, 3, 3, 2, 2, 1, 1, 5, 2, 2, 3, 3, 3
 |3, 2, 1, 4, 4, 4, 4, 3, 3, 3, 2, 1, 2, 1, 1, 4, 3, 3, 2, 2, 2, 5, 5, 5, 1, 1, 1, 4, 4, 4, 1, 1, 1, 2, 2, 2, 3, 3, 3, 4, 2, 1, 3, 2, 2, 2, 2, 2, 4, 2, 2, 4, 3, 3, 3, 2, 2, 5, 4, 3, 4, 4, 4, 5, 3, 1, 4, 2, 1, 4, 3, 2, 5, 5, 5, 3, 3, 1, 4, 3, 2, 4, 4, 4, 4, 2, 2, 3, 3, 3, 3, 2, 2, 3, 3, 2, 4, 3, 3, 5, 4, 4, 3, 3, 3, 3, 3, 2, 3, 2, 2, 3, 3, 3, 3, 2, 2, 2, 2, 2, 2, 2, 1, 4, 3, 1, 5, 5, 5, 3, 3, 2, 3, 3, 3, 5, 3, 3, 5, 3, 1, 3, 3, 3, 3, 3, 1, 4, 3, 2
 |23, 16, 13, 18, 18, 14, 18, 17, 1, 5, 5, 4, 7, 5, 2, 29, 25, 25, 24, 23, 22, 21, 14, 12, 17, 9, 4, 29, 20, 14, 26, 25, 25, 28, 24, 22, 20, 15, 7, 15, 12, 8, 18, 11, 6, 24, 24, 23, 28, 26, 24, 17, 7, 6, 28, 23, 18, 1, 1, 1, 30, 13, 12, 8, 7, 6, 24, 23, 21, 18, 15, 13, 25, 24, 23, 26, 23, 22, 29, 28, 27, 16, 16, 16, 30, 29, 29, 28, 25, 22, 13, 7, 6, 25, 13, 7, 25, 24, 23, 22, 20, 15, 16, 13, 11, 24, 23, 23, 14, 13, 13, 16, 10, 5, 4, 4, 3, 26, 26, 26, 29, 26, 24, 25, 23, 23, 4, 3, 3, 29, 15, 11, 22, 20, 17, 8, 6, 5, 15, 14, 9, 16, 11, 4, 22, 22, 21, 28, 23, 23
 |16, 11, 4, 18, 18, 18, 29, 21, 10, 17, 16, 15, 19, 18, 18, 13, 13, 12, 13, 7, 3, 27, 25, 24, 12, 10, 7, 17, 16, 15, 7, 7, 7, 16, 15, 15, 9, 8, 5, 13, 10, 9, 28, 16, 8, 25, 22, 16, 11, 7, 7, 21, 21, 21, 21, 11, 10, 16, 16, 14, 16, 15, 11, 26, 24, 22, 16, 16, 15, 18, 14, 13, 2, 2, 1, 22, 14, 8, 29, 21, 7, 19, 18, 17, 30, 29, 27, 22, 16, 14, 18, 13, 9, 26, 16, 11, 11, 9, 9, 26, 16, 11, 8, 6, 5, 25, 23, 18, 13, 10, 8, 10, 8, 7, 15, 15, 13, 5, 5, 4, 9, 5, 5, 16, 10, 7, 9, 9, 8, 22, 18, 10, 23, 22, 22, 16, 15, 15, 15, 12, 2, 21, 19, 19, 23, 20, 20, 27, 26, 26|];